language ESSENCE' 1.0
letting nrows be 10
letting ncols be 10

letting nrobots be 6
letting robot_pos be [[1, 1], 
                     [5 , 1],
                     [10, 1],
                     [1 ,10],
                     [5 ,10],
                     [10,10]]

letting ntasks be 10
letting task_obj be [1, 2, 1, 2, 1, 2, 1, 2, 1, 2]
letting task_dest be [[1 , 2], 
                      [1 , 4],
                      [1 , 6],
                      [1 , 8],
                      [1 ,10],
                      [10, 2],
                      [10, 4],
                      [10, 6],
                      [10, 8],
                      [10,10]]

letting time_limit be 25

letting map be [[ 0, 0, 0, 0, 0, 0, 0, 0, 0, 0],
                [ 0, 0, 0, 0, 0, 0, 0, 0, 0, 0],
                [ 0, 0,-1,-1,-1,-1,-1,-1, 0, 0],
                [ 0, 0, 1, 0, 1, 0, 1, 0, 0, 0],
                [ 0, 0, 0, 0, 0, 0, 0, 0, 0, 0],
                [ 0, 0,-1,-1,-1,-1,-1,-1, 0, 0],
                [ 0, 0, 2, 0, 2, 0, 2, 0, 0, 0],
                [ 0, 0, 0, 0, 0, 0, 0, 0, 0, 0],
                [ 0, 0,-1,-1,-1,-1,-1,-1, 0, 0],
                [ 0, 0, 0, 0, 0, 0, 0, 0, 0, 0]]
